Solver command line: ['C:\\Program Files\\IBM\\ILOG\\CPLEX_Studio2211\\cplex\\bin\\x64_win64\\cplex.exe']


Welcome to IBM(R) ILOG(R) CPLEX(R) Interactive Optimizer 22.1.1.0
  with Simplex, Mixed Integer & Barrier Optimizers
5725-A06 5725-A29 5724-Y48 5724-Y49 5724-Y54 5724-Y55 5655-Y21
Copyright IBM Corp. 1988, 2022.  All Rights Reserved.

Type 'help' for a list of available commands.
Type 'help' followed by a command name for more
information on commands.

CPLEX> Logfile 'cplex.log' closed.
Logfile 'C:\Users\wangy\Documents\GitHub\re_optimization\result_site_specific\tmpopo7h2py.cplex.log' open.
CPLEX> Problem 'C:\Users\wangy\Documents\GitHub\re_optimization\result_site_specific\tmpd65s6c5x.pyomo.lp' read.
Read time = 0.30 sec. (9.13 ticks)
CPLEX> Problem name         : C:\Users\wangy\Documents\GitHub\re_optimization\result_site_specific\tmpd65s6c5x.pyomo.lp
Objective sense      : Minimize
Variables            :   65769  [Nneg: 35068,  Free: 8792,  Binary: 9,
                                 Other: 21900]
Objective nonzeros   :      17
Linear constraints   :   87665  [Less: 46741,  Greater: 5,  Equal: 40919]
  Nonzeros           :  225041
  RHS nonzeros       :    3766

Variables            : Min LB: 0.000000         Max UB: 1.000000       
Objective nonzeros   : Min   : 1.000000         Max   : 1.000000       
Linear constraints   :
  Nonzeros           : Min   : 0.001808780      Max   : 100000.0       
  RHS nonzeros       : Min   : 0.05200000       Max   : 100000.0       
CPLEX> Version identifier: 22.1.1.0 | 2022-11-27 | 9160aff4d
Tried aggregator 3 times.
MIP Presolve eliminated 52710 rows and 32268 columns.
Aggregator did 10237 substitutions.
Reduced MIP has 24718 rows, 23264 columns, and 74011 nonzeros.
Reduced MIP has 5 binaries, 0 generals, 0 SOSs, and 0 indicators.
Presolve time = 0.20 sec. (225.02 ticks)
Found incumbent of value 247699.989441 after 0.28 sec. (330.92 ticks)
Probing time = 0.02 sec. (1.32 ticks)
Tried aggregator 1 time.
Detecting symmetries...
Reduced MIP has 24718 rows, 23264 columns, and 74011 nonzeros.
Reduced MIP has 5 binaries, 0 generals, 0 SOSs, and 0 indicators.
Presolve time = 0.05 sec. (47.40 ticks)
Probing time = 0.00 sec. (1.21 ticks)
MIP emphasis: balance optimality and feasibility.
MIP search method: dynamic search.
Parallel mode: deterministic, using up to 16 threads.
Root relaxation solution time = 1.14 sec. (870.55 ticks)

        Nodes                                         Cuts/
   Node  Left     Objective  IInf  Best Integer    Best Bound    ItCnt     Gap

*     0+    0                       247699.9894    -4669.1220           101.88%
      0     0     5627.2982     1   247699.9894     5627.2982      188   97.73%
*     0+    0                         7232.0597     5627.2982            22.19%
*     0+    0                         5911.9919     5627.2982             4.82%
      0     0        cutoff           5911.9919                    832    0.00%
Elapsed time = 1.84 sec. (1786.73 ticks, tree = 0.01 MB, solutions = 3)

Root node processing (before b&c):
  Real time             =    1.84 sec. (1789.92 ticks)
Parallel b&c, 16 threads:
  Real time             =    0.00 sec. (0.00 ticks)
  Sync time (average)   =    0.00 sec.
  Wait time (average)   =    0.00 sec.
                          ------------
Total (root+branch&cut) =    1.84 sec. (1789.92 ticks)

Solution pool: 3 solutions saved.

MIP - Integer optimal solution:  Objective =  5.9119919029e+03
Solution time =    1.84 sec.  Iterations = 832  Nodes = 0
Deterministic time = 1790.11 ticks  (970.77 ticks/sec)

CPLEX> Incumbent solution written to file 'C:\Users\wangy\Documents\GitHub\re_optimization\result_site_specific\tmpy2aux0wl.cplex.sol'.
CPLEX> 
